c File written by GRAPH:7/3/2016 11h:59m:28s
c r10_0.2_23.txt
c test for kcore_UB
p edge 10 20

e 1 3
e 1 4
e 1 5
e 1 6
e 1 9
e 2 7
e 3 4
e 3 5
e 3 6
e 3 7
e 3 9
e 4 6
e 4 7
e 4 9
e 4 10
e 5 6
e 6 7
e 6 9
e 7 8
e 9 10
